651
175.0 378.0 
155.0 311.0 
185.0 302.0 
170.0 281.0 
175.0 317.0 
145.0 256.0 
155.0 251.0 
175.0 233.0 
160.0 196.0 
150.0 218.0 
205.0 298.0 
150.0 212.0 
290.0 238.0 
265.0 222.0 
270.0 259.0 
290.0 236.0 
255.0 232.0 
325.0 241.0 
290.0 240.0 
290.0 127.0 
250.0 168.0 
270.0 151.0 
220.0 323.0 
210.0 237.0 
125.0 345.0 
130.0 317.0 
155.0 311.0 
150.0 294.0 
175.0 322.0 
170.0 281.0 
175.0 331.0 
175.0 317.0 
175.0 331.0 
175.0 233.0 
245.0 243.0 
195.0 307.0 
150.0 212.0 
290.0 238.0 
265.0 222.0 
325.0 241.0 
255.0 232.0 
135.0 178.0 
165.0 152.0 
155.0 145.0 
220.0 323.0 
210.0 237.0 
245.0 243.0 
310.0 205.0 
295.0 175.0 
155.0 311.0 
90.0 279.0 
185.0 302.0 
170.0 281.0 
175.0 317.0 
175.0 331.0 
220.0 323.0 
210.0 339.0 
175.0 233.0 
190.0 270.0 
210.0 237.0 
245.0 243.0 
150.0 212.0 
150.0 212.0 
290.0 238.0 
265.0 222.0 
295.0 175.0 
290.0 127.0 
270.0 151.0 
175.0 378.0 
210.0 237.0 
290.0 236.0 
310.0 205.0 
250.0 168.0 
175.0 378.0 
155.0 311.0 
170.0 354.0 
185.0 302.0 
170.0 281.0 
175.0 317.0 
155.0 251.0 
175.0 331.0 
170.0 281.0 
220.0 323.0 
175.0 233.0 
225.0 276.0 
225.0 272.0 
150.0 212.0 
150.0 212.0 
290.0 238.0 
265.0 222.0 
290.0 236.0 
255.0 232.0 
185.0 222.0 
290.0 127.0 
250.0 168.0 
260.0 166.0 
270.0 151.0 
170.0 186.0 
310.0 205.0 
160.0 360.0 
155.0 311.0 
90.0 279.0 
185.0 302.0 
170.0 281.0 
140.0 227.0 
160.0 307.0 
180.0 275.0 
150.0 211.0 
155.0 251.0 
130.0 232.0 
175.0 233.0 
150.0 321.0 
215.0 286.0 
225.0 272.0 
150.0 212.0 
290.0 238.0 
265.0 222.0 
270.0 259.0 
290.0 240.0 
290.0 127.0 
250.0 168.0 
270.0 151.0 
175.0 378.0 
185.0 219.0 
325.0 241.0 
175.0 378.0 
155.0 311.0 
105.0 296.0 
90.0 279.0 
185.0 302.0 
170.0 281.0 
170.0 275.0 
175.0 331.0 
220.0 323.0 
175.0 337.0 
245.0 243.0 
225.0 272.0 
150.0 212.0 
290.0 238.0 
265.0 222.0 
270.0 259.0 
255.0 232.0 
290.0 236.0 
255.0 232.0 
185.0 222.0 
220.0 126.0 
165.0 152.0 
270.0 151.0 
210.0 237.0 
205.0 298.0 
175.0 378.0 
90.0 279.0 
90.0 279.0 
175.0 322.0 
170.0 281.0 
175.0 331.0 
175.0 317.0 
225.0 272.0 
150.0 212.0 
290.0 238.0 
265.0 222.0 
210.0 243.0 
255.0 232.0 
185.0 222.0 
290.0 127.0 
165.0 152.0 
270.0 151.0 
210.0 339.0 
185.0 315.0 
210.0 237.0 
245.0 243.0 
200.0 247.0 
185.0 219.0 
175.0 378.0 
155.0 311.0 
130.0 312.0 
185.0 302.0 
170.0 281.0 
175.0 317.0 
170.0 281.0 
200.0 243.0 
220.0 323.0 
175.0 233.0 
245.0 243.0 
210.0 243.0 
150.0 212.0 
290.0 238.0 
265.0 222.0 
185.0 222.0 
290.0 127.0 
165.0 152.0 
270.0 151.0 
210.0 237.0 
250.0 292.0 
175.0 236.0 
195.0 201.0 
90.0 279.0 
175.0 322.0 
170.0 281.0 
145.0 256.0 
165.0 336.0 
170.0 281.0 
175.0 331.0 
220.0 323.0 
175.0 233.0 
155.0 264.0 
160.0 305.0 
225.0 272.0 
150.0 212.0 
290.0 238.0 
265.0 222.0 
275.0 193.0 
290.0 236.0 
185.0 222.0 
290.0 127.0 
250.0 168.0 
260.0 166.0 
270.0 151.0 
145.0 340.0 
135.0 342.0 
215.0 183.0 
175.0 378.0 
155.0 311.0 
150.0 294.0 
175.0 322.0 
170.0 281.0 
175.0 317.0 
170.0 281.0 
175.0 331.0 
220.0 323.0 
175.0 233.0 
245.0 243.0 
150.0 212.0 
290.0 238.0 
265.0 222.0 
150.0 212.0 
325.0 241.0 
185.0 222.0 
290.0 127.0 
250.0 168.0 
270.0 151.0 
210.0 237.0 
240.0 197.0 
210.0 237.0 
135.0 342.0 
115.0 269.0 
175.0 378.0 
130.0 293.0 
145.0 340.0 
140.0 291.0 
180.0 369.0 
185.0 302.0 
210.0 330.0 
170.0 281.0 
175.0 331.0 
155.0 251.0 
170.0 275.0 
150.0 308.0 
185.0 315.0 
155.0 251.0 
175.0 331.0 
170.0 281.0 
220.0 323.0 
165.0 241.0 
200.0 243.0 
200.0 351.0 
210.0 339.0 
165.0 241.0 
210.0 237.0 
190.0 270.0 
190.0 270.0 
210.0 237.0 
245.0 243.0 
215.0 183.0 
150.0 212.0 
290.0 238.0 
155.0 271.0 
315.0 252.0 
325.0 241.0 
185.0 222.0 
250.0 171.0 
175.0 233.0 
115.0 269.0 
135.0 342.0 
175.0 378.0 
105.0 299.0 
145.0 340.0 
140.0 291.0 
140.0 288.0 
185.0 302.0 
145.0 261.0 
170.0 281.0 
185.0 315.0 
155.0 251.0 
155.0 251.0 
175.0 331.0 
200.0 243.0 
220.0 323.0 
165.0 241.0 
165.0 241.0 
210.0 339.0 
205.0 292.0 
210.0 237.0 
210.0 237.0 
190.0 270.0 
210.0 237.0 
245.0 243.0 
245.0 243.0 
150.0 212.0 
150.0 212.0 
290.0 238.0 
150.0 212.0 
280.0 257.0 
210.0 243.0 
325.0 241.0 
325.0 241.0 
160.0 193.0 
230.0 317.0 
135.0 342.0 
130.0 293.0 
175.0 378.0 
145.0 340.0 
140.0 291.0 
195.0 366.0 
185.0 302.0 
145.0 261.0 
170.0 281.0 
185.0 315.0 
155.0 251.0 
155.0 251.0 
175.0 331.0 
220.0 323.0 
200.0 243.0 
210.0 339.0 
175.0 233.0 
150.0 217.0 
175.0 233.0 
175.0 233.0 
210.0 237.0 
210.0 237.0 
190.0 270.0 
205.0 191.0 
235.0 252.0 
245.0 240.0 
185.0 219.0 
150.0 212.0 
290.0 238.0 
280.0 257.0 
325.0 241.0 
325.0 241.0 
210.0 131.0 
190.0 270.0 
310.0 205.0 
175.0 378.0 
135.0 342.0 
115.0 269.0 
105.0 299.0 
120.0 336.0 
130.0 293.0 
140.0 291.0 
145.0 340.0 
140.0 288.0 
185.0 302.0 
145.0 261.0 
185.0 315.0 
170.0 281.0 
155.0 251.0 
155.0 251.0 
175.0 331.0 
220.0 323.0 
165.0 241.0 
200.0 243.0 
200.0 351.0 
210.0 339.0 
205.0 292.0 
195.0 314.0 
215.0 286.0 
215.0 286.0 
220.0 229.0 
205.0 298.0 
150.0 212.0 
290.0 238.0 
150.0 212.0 
280.0 257.0 
210.0 243.0 
325.0 241.0 
325.0 241.0 
220.0 126.0 
150.0 212.0 
175.0 378.0 
135.0 342.0 
105.0 299.0 
115.0 269.0 
130.0 293.0 
140.0 291.0 
145.0 340.0 
170.0 354.0 
195.0 366.0 
185.0 302.0 
155.0 251.0 
175.0 331.0 
155.0 251.0 
170.0 275.0 
155.0 251.0 
170.0 281.0 
185.0 315.0 
155.0 251.0 
175.0 331.0 
220.0 323.0 
200.0 351.0 
200.0 243.0 
210.0 339.0 
205.0 292.0 
195.0 314.0 
245.0 243.0 
210.0 237.0 
245.0 243.0 
245.0 243.0 
150.0 212.0 
185.0 219.0 
150.0 212.0 
290.0 238.0 
155.0 271.0 
210.0 243.0 
325.0 241.0 
325.0 241.0 
185.0 222.0 
175.0 378.0 
135.0 342.0 
115.0 269.0 
105.0 299.0 
140.0 291.0 
145.0 340.0 
90.0 279.0 
195.0 366.0 
185.0 302.0 
145.0 261.0 
185.0 315.0 
170.0 281.0 
155.0 251.0 
175.0 331.0 
155.0 251.0 
155.0 251.0 
155.0 251.0 
220.0 323.0 
200.0 351.0 
165.0 241.0 
200.0 243.0 
210.0 339.0 
165.0 241.0 
175.0 233.0 
175.0 233.0 
175.0 233.0 
150.0 217.0 
210.0 237.0 
210.0 237.0 
210.0 237.0 
190.0 270.0 
245.0 243.0 
210.0 237.0 
210.0 237.0 
215.0 286.0 
230.0 317.0 
260.0 270.0 
205.0 191.0 
185.0 219.0 
245.0 240.0 
150.0 212.0 
175.0 238.0 
155.0 271.0 
210.0 243.0 
350.0 259.0 
185.0 222.0 
175.0 378.0 
135.0 342.0 
115.0 269.0 
105.0 299.0 
130.0 293.0 
140.0 291.0 
145.0 340.0 
140.0 288.0 
140.0 322.0 
185.0 302.0 
155.0 251.0 
170.0 281.0 
210.0 330.0 
145.0 256.0 
145.0 256.0 
170.0 281.0 
185.0 315.0 
155.0 251.0 
155.0 251.0 
200.0 243.0 
220.0 323.0 
200.0 351.0 
175.0 233.0 
155.0 266.0 
195.0 314.0 
255.0 335.0 
210.0 237.0 
190.0 270.0 
210.0 237.0 
210.0 237.0 
225.0 273.0 
220.0 224.0 
215.0 183.0 
150.0 212.0 
290.0 238.0 
150.0 212.0 
280.0 257.0 
210.0 243.0 
325.0 241.0 
325.0 241.0 
185.0 222.0 
135.0 342.0 
115.0 269.0 
105.0 299.0 
130.0 293.0 
175.0 378.0 
145.0 340.0 
140.0 291.0 
140.0 288.0 
185.0 302.0 
170.0 281.0 
210.0 330.0 
155.0 251.0 
175.0 337.0 
140.0 227.0 
210.0 313.0 
150.0 211.0 
180.0 275.0 
160.0 307.0 
185.0 325.0 
205.0 287.0 
170.0 281.0 
185.0 315.0 
175.0 331.0 
200.0 243.0 
200.0 351.0 
220.0 323.0 
165.0 241.0 
210.0 339.0 
175.0 233.0 
195.0 314.0 
245.0 243.0 
210.0 237.0 
215.0 286.0 
230.0 317.0 
215.0 286.0 
245.0 243.0 
250.0 292.0 
245.0 240.0 
185.0 219.0 
150.0 212.0 
150.0 212.0 
290.0 238.0 
155.0 271.0 
210.0 243.0 
325.0 241.0 
325.0 241.0 
185.0 222.0 
175.0 378.0 
140.0 291.0 
140.0 288.0 
145.0 261.0 
170.0 281.0 
185.0 315.0 
175.0 331.0 
155.0 251.0 
155.0 251.0 
155.0 251.0 
135.0 284.0 
200.0 243.0 
220.0 323.0 
200.0 351.0 
165.0 241.0 
210.0 339.0 
165.0 241.0 
175.0 233.0 
175.0 233.0 
175.0 233.0 
155.0 266.0 
195.0 314.0 
210.0 237.0 
250.0 292.0 
205.0 298.0 
150.0 212.0 
290.0 238.0 
265.0 222.0 
310.0 205.0 
290.0 236.0 
255.0 232.0 
325.0 241.0 
325.0 241.0 
295.0 175.0 
135.0 178.0 
125.0 268.0 
175.0 378.0 
135.0 342.0 
130.0 293.0 
115.0 269.0 
105.0 299.0 
140.0 291.0 
145.0 340.0 
140.0 288.0 
185.0 302.0 
175.0 331.0 
170.0 281.0 
210.0 330.0 
160.0 277.0 
170.0 275.0 
150.0 308.0 
170.0 275.0 
170.0 281.0 
185.0 315.0 
175.0 331.0 
155.0 251.0 
155.0 251.0 
155.0 251.0 
220.0 323.0 
165.0 241.0 
200.0 351.0 
200.0 243.0 
210.0 339.0 
165.0 241.0 
175.0 233.0 
195.0 314.0 
215.0 286.0 
215.0 286.0 
230.0 317.0 
210.0 237.0 
190.0 270.0 
210.0 237.0 
250.0 292.0 
245.0 243.0 
250.0 292.0 
150.0 212.0 
185.0 219.0 
245.0 240.0 
150.0 212.0 
150.0 212.0 
290.0 238.0 
155.0 271.0 
310.0 205.0 
325.0 241.0 
325.0 241.0 
150.0 212.0 
220.0 126.0 
230.0 201.0 
250.0 168.0 
155.0 145.0 

0 36 37 38 46 54 45 44 43 35 27 28 20 21 65 
0 36 37 38 46 54 53 45 44 43 35 28 65 
0 28 20 21 12 11 10 18 27 35 43 36 65 
0 36 44 43 35 34 26 18 11 21 28 65 
0 36 44 43 35 27 26 18 11 20 21 28 65 
0 28 36 44 43 35 27 26 18 11 65 
0 28 36 44 43 34 27 26 18 11 65 
0 28 36 44 43 34 26 18 17 11 65 
0 28 36 35 34 26 18 17 11 65 
0 36 44 35 34 26 18 4 29 65 
0 28 36 44 45 53 61 62 54 39 38 29 65 
0 28 36 44 52 53 61 54 38 65 
0 36 28 20 12 11 3 4 5 6 7 14 21 65 
0 36 28 20 12 4 5 6 7 16 14 21 65 
0 36 44 45 53 54 62 63 56 48 39 38 29 65 
0 28 20 12 11 3 4 5 6 7 14 21 29 65 
0 28 20 12 11 4 5 6 7 14 21 29 65 
0 28 20 12 11 2 3 4 5 6 7 14 21 29 65 
0 28 20 12 4 5 6 7 16 15 14 21 29 65 
0 28 20 12 4 3 2 9 17 25 33 65 
0 28 20 21 13 5 6 7 16 32 38 65 
0 28 20 12 4 5 6 7 16 32 38 65 
0 36 44 43 42 34 26 18 10 11 20 21 29 65 
0 28 36 44 43 42 34 25 17 18 11 65 
0 28 36 37 38 46 45 44 43 35 27 29 65 
0 36 28 29 21 12 20 27 35 43 45 65 
0 36 37 38 46 54 53 45 44 43 35 28 65 
0 28 36 45 46 54 53 44 43 35 21 65 
0 36 35 44 43 42 34 26 18 27 28 29 65 
0 36 44 43 35 34 26 18 11 21 28 65 
0 36 44 43 35 34 26 18 11 20 28 29 65 
0 36 44 43 35 27 26 18 11 20 21 28 65 
0 36 44 43 35 34 26 18 11 20 28 29 65 
0 28 36 44 43 34 26 18 17 11 65 
0 28 36 44 43 42 34 33 25 17 18 11 65 
0 28 36 44 52 53 54 55 47 39 38 29 65 
0 28 36 44 52 53 61 54 38 65 
0 36 28 20 12 11 3 4 5 6 7 14 21 65 
0 36 28 20 12 4 5 6 7 16 14 21 65 
0 28 20 11 10 2 3 4 5 6 7 14 21 29 65 
0 28 20 12 11 4 5 6 7 14 21 29 65 
0 28 27 18 17 9 21 29 65 
0 36 44 52 53 61 62 39 65 
0 36 44 52 53 61 62 30 65 
0 36 44 43 42 34 26 18 10 11 20 21 29 65 
0 28 36 44 43 42 34 25 17 18 11 65 
0 28 36 44 43 42 34 33 25 17 18 11 65 
0 28 20 12 11 10 3 4 5 6 7 14 21 65 
0 28 20 12 3 4 5 6 7 16 14 21 65 
0 36 37 38 46 54 53 45 44 43 35 28 65 
0 36 28 29 21 20 27 35 43 65 
0 28 20 21 12 11 10 18 27 35 43 36 65 
0 36 44 43 35 34 26 18 11 21 28 65 
0 36 44 43 35 27 26 18 11 20 21 28 65 
0 36 44 43 35 34 26 18 11 20 28 29 65 
0 36 44 43 42 34 26 18 10 11 20 21 29 65 
0 36 44 43 42 34 26 18 10 11 20 28 29 65 
0 28 36 44 43 34 26 18 17 11 65 
0 28 36 44 35 34 26 25 17 18 29 65 
0 28 36 44 43 42 34 25 17 18 11 65 
0 28 36 44 43 42 34 33 25 17 18 11 65 
0 28 36 44 52 53 61 54 38 65 
0 28 36 44 52 53 61 54 38 65 
0 36 28 20 12 11 3 4 5 6 7 14 21 65 
0 36 28 20 12 4 5 6 7 16 14 21 65 
0 28 20 12 3 4 5 6 7 16 14 21 65 
0 28 20 12 4 3 2 9 17 25 33 65 
0 28 20 12 4 5 6 7 16 32 38 65 
0 36 37 38 46 54 45 44 43 35 27 28 20 21 65 
0 28 36 44 43 42 34 25 17 18 11 65 
0 28 20 12 11 3 4 5 6 7 14 21 29 65 
0 28 20 12 11 10 3 4 5 6 7 14 21 65 
0 28 20 21 13 5 6 7 16 32 38 65 
0 36 37 38 46 54 45 44 43 35 27 28 20 21 65 
0 36 37 38 46 54 53 45 44 43 35 28 65 
0 36 37 45 44 43 35 34 26 18 27 28 29 65 
0 28 20 21 12 11 10 18 27 35 43 36 65 
0 36 44 43 35 34 26 18 11 21 28 65 
0 36 44 43 35 27 26 18 11 20 21 28 65 
0 28 36 44 43 34 27 26 18 11 65 
0 36 44 43 35 34 26 18 11 20 28 29 65 
0 36 44 43 35 34 26 18 11 21 28 65 
0 36 44 43 42 34 26 18 10 11 20 21 29 65 
0 28 36 44 43 34 26 18 17 11 65 
0 28 36 44 43 42 34 33 25 17 18 29 65 
0 36 35 34 33 25 17 18 11 20 28 29 65 
0 28 36 44 52 53 61 54 38 65 
0 28 36 44 52 53 61 54 38 65 
0 36 28 20 12 11 3 4 5 6 7 14 21 65 
0 36 28 20 12 4 5 6 7 16 14 21 65 
0 28 20 12 11 3 4 5 6 7 14 21 29 65 
0 28 20 12 11 4 5 6 7 14 21 29 65 
0 36 44 52 53 61 62 39 38 29 65 
0 28 20 12 4 3 2 9 17 25 33 65 
0 28 20 21 13 5 6 7 16 32 38 65 
0 28 20 12 4 5 6 7 16 39 38 65 
0 28 20 12 4 5 6 7 16 32 38 65 
0 28 36 35 34 33 26 18 17 65 
0 28 20 12 11 10 3 4 5 6 7 14 21 65 
0 37 38 46 54 53 45 44 43 35 36 28 29 65 
0 36 37 38 46 54 53 45 44 43 35 28 65 
0 36 28 29 21 20 27 35 43 65 
0 28 20 21 12 11 10 18 27 35 43 36 65 
0 36 44 43 35 34 26 18 11 21 28 65 
0 28 36 44 35 34 26 18 11 65 
0 36 44 35 34 26 18 11 20 28 29 65 
0 36 44 43 34 26 18 10 11 21 28 65 
0 36 44 35 34 26 18 11 21 65 
0 28 36 44 43 34 27 26 18 11 65 
0 28 36 44 43 35 26 18 11 65 
0 28 36 44 43 34 26 18 17 11 65 
0 28 36 44 43 34 26 18 20 21 29 65 
0 36 44 35 34 26 25 17 18 11 28 29 65 
0 36 35 34 33 25 17 18 11 20 28 29 65 
0 28 36 44 52 53 61 54 38 65 
0 36 28 20 12 11 3 4 5 6 7 14 21 65 
0 36 28 20 12 4 5 6 7 16 14 21 65 
0 36 44 45 53 54 62 63 56 48 39 38 29 65 
0 28 20 12 4 5 6 7 16 15 14 21 29 65 
0 28 20 12 4 3 2 9 17 25 33 65 
0 28 20 21 13 5 6 7 16 32 38 65 
0 28 20 12 4 5 6 7 16 32 38 65 
0 36 37 38 46 54 45 44 43 35 27 28 20 21 65 
0 28 36 44 52 53 60 61 54 38 65 
0 28 20 12 11 2 3 4 5 6 7 14 21 29 65 
0 36 37 38 46 54 45 44 43 35 27 28 20 21 65 
0 36 37 38 46 54 53 45 44 43 35 28 65 
0 36 28 29 21 20 27 35 45 38 65 
0 36 28 29 21 20 27 35 43 65 
0 28 20 21 12 11 10 18 27 35 43 36 65 
0 36 44 43 35 34 26 18 11 21 28 65 
0 28 36 44 43 35 34 26 27 18 11 65 
0 36 44 43 35 34 26 18 11 20 28 29 65 
0 36 44 43 42 34 26 18 10 11 20 21 29 65 
0 28 36 44 43 34 26 18 11 20 21 29 65 
0 28 36 44 43 42 34 33 25 17 18 11 65 
0 36 35 34 33 25 17 18 11 20 28 29 65 
0 28 36 44 52 53 61 54 38 65 
0 36 28 20 12 11 3 4 5 6 7 14 21 65 
0 36 28 20 12 4 5 6 7 16 14 21 65 
0 36 44 45 53 54 62 63 56 48 39 38 29 65 
0 28 20 11 12 4 5 6 7 14 21 29 65 
0 28 20 12 11 3 4 5 6 7 14 21 29 65 
0 28 20 12 11 4 5 6 7 14 21 29 65 
0 36 44 52 53 61 62 39 38 29 65 
0 36 44 52 60 59 57 49 41 65 
0 36 44 52 53 61 62 39 65 
0 28 20 12 4 5 6 7 16 32 38 65 
0 28 36 44 43 42 34 25 17 18 11 65 
0 28 36 44 45 53 61 62 54 39 38 29 65 
0 36 37 38 46 54 45 44 43 35 27 28 20 21 65 
0 36 28 29 21 20 27 35 43 65 
0 36 28 29 21 20 27 35 43 65 
0 36 35 44 43 42 34 26 18 27 28 29 65 
0 36 44 43 35 34 26 18 11 21 28 65 
0 36 44 43 35 34 26 18 11 20 28 29 65 
0 36 44 43 35 27 26 18 11 20 21 28 65 
0 36 35 34 33 25 17 18 11 20 28 29 65 
0 28 36 44 52 53 61 54 38 65 
0 36 28 20 12 11 3 4 5 6 7 14 21 65 
0 36 28 20 12 4 5 6 7 16 14 21 65 
0 36 44 52 53 61 62 54 39 38 29 65 
0 28 20 12 11 4 5 6 7 14 21 29 65 
0 36 44 52 53 61 62 39 38 29 65 
0 28 20 12 4 3 2 9 17 25 33 65 
0 36 44 52 53 61 62 39 65 
0 28 20 12 4 5 6 7 16 32 38 65 
0 36 44 43 42 34 26 18 10 11 20 28 29 65 
0 36 44 43 35 34 26 18 11 20 21 29 65 
0 28 36 44 43 42 34 33 25 18 11 65 
0 28 36 44 43 42 34 33 25 17 18 11 65 
0 28 36 44 43 35 34 33 25 18 11 65 
0 28 36 44 52 53 60 61 54 38 65 
0 36 37 38 46 54 45 44 43 35 27 28 20 21 65 
0 36 37 38 46 54 53 45 44 43 35 28 65 
0 37 38 46 54 53 45 44 36 28 29 65 
0 28 20 21 12 11 10 18 27 35 43 36 65 
0 36 44 43 35 34 26 18 11 21 28 65 
0 36 44 43 35 27 26 18 11 20 21 28 65 
0 36 44 43 35 34 26 18 11 21 28 65 
0 36 44 43 42 34 26 18 10 11 21 65 
0 36 44 43 42 34 26 18 10 11 20 21 29 65 
0 28 36 44 43 34 26 18 17 11 65 
0 28 36 44 43 42 34 33 25 17 18 11 65 
0 28 36 44 43 42 41 33 25 17 29 65 
0 28 36 44 52 53 61 54 38 65 
0 36 28 20 12 11 3 4 5 6 7 14 21 65 
0 36 28 20 12 4 5 6 7 16 14 21 65 
0 36 44 52 53 61 62 39 38 29 65 
0 28 20 12 4 3 2 9 17 25 33 65 
0 36 44 52 53 61 62 39 65 
0 28 20 12 4 5 6 7 16 32 38 65 
0 28 36 44 43 42 34 25 17 18 11 65 
0 36 44 43 42 34 33 25 17 18 11 28 29 65 
0 36 44 52 53 54 62 39 38 29 65 
0 36 44 52 53 54 62 47 39 38 65 
0 36 28 29 21 20 27 35 43 65 
0 36 35 44 43 42 34 26 18 27 28 29 65 
0 36 44 43 35 34 26 18 11 21 28 65 
0 28 36 44 43 35 27 26 18 11 65 
0 36 44 43 35 27 26 18 11 20 28 29 65 
0 36 44 43 35 34 26 18 11 21 28 65 
0 36 44 43 35 34 26 18 11 20 28 29 65 
0 36 44 43 42 34 26 18 10 11 20 21 29 65 
0 28 36 44 43 34 26 18 17 11 65 
0 28 36 44 43 34 26 18 4 29 65 
0 28 36 44 43 42 34 26 18 20 29 65 
0 36 35 34 33 25 17 18 11 20 28 29 65 
0 28 36 44 52 53 61 54 38 65 
0 36 28 20 12 11 3 4 5 6 7 14 21 65 
0 36 28 20 12 4 5 6 7 16 14 21 65 
0 28 27 18 10 11 3 4 5 6 14 21 65 
0 28 20 12 11 3 4 5 6 7 14 21 29 65 
0 36 44 52 53 61 62 39 38 29 65 
0 28 20 12 4 3 2 9 17 25 33 65 
0 28 20 21 13 5 6 7 16 32 38 65 
0 28 20 12 4 5 6 7 16 39 38 65 
0 28 20 12 4 5 6 7 16 32 38 65 
0 28 36 37 38 46 54 53 44 43 35 29 65 
0 28 36 37 38 46 54 45 44 43 35 29 65 
0 36 44 35 34 33 25 17 18 11 65 
0 36 37 38 46 54 45 44 43 35 27 28 20 21 65 
0 36 37 38 46 54 53 45 44 43 35 28 65 
0 28 36 45 46 54 53 44 43 35 21 65 
0 36 35 44 43 42 34 26 18 27 28 29 65 
0 36 44 43 35 34 26 18 11 21 28 65 
0 36 44 43 35 27 26 18 11 20 21 28 65 
0 36 44 43 35 34 26 18 11 21 28 65 
0 36 44 43 35 34 26 18 11 20 28 29 65 
0 36 44 43 42 34 26 18 10 11 20 21 29 65 
0 28 36 44 43 34 26 18 17 11 65 
0 28 36 44 43 42 34 33 25 17 18 11 65 
0 28 36 44 52 53 61 54 38 65 
0 36 28 20 12 11 3 4 5 6 7 14 21 65 
0 36 28 20 12 4 5 6 7 16 14 21 65 
0 28 36 44 52 53 61 54 38 65 
0 28 20 11 10 2 3 4 5 6 7 14 21 29 65 
0 36 44 52 53 61 62 39 38 29 65 
0 28 20 12 4 3 2 9 17 25 33 65 
0 28 20 21 13 5 6 7 16 32 38 65 
0 28 20 12 4 5 6 7 16 32 38 65 
0 28 36 44 43 42 34 25 17 18 11 65 
0 36 44 43 42 34 33 25 17 18 11 65 
0 28 36 44 43 42 34 33 25 18 11 65 
0 28 36 37 38 46 54 45 44 43 35 29 65 
0 28 36 37 38 39 46 45 44 43 65 
0 36 37 38 46 54 45 44 43 35 27 28 20 21 65 
0 36 37 38 39 46 45 44 43 35 28 65 
0 28 36 37 38 46 54 53 44 43 35 29 65 
0 36 37 38 46 54 53 44 43 35 28 65 
0 36 44 43 35 34 26 18 27 28 20 21 29 65 
0 28 20 21 12 11 10 18 27 35 43 36 65 
0 28 20 21 12 11 18 26 34 35 43 44 36 65 
0 36 44 43 35 34 26 18 11 21 28 65 
0 36 44 43 35 34 26 18 11 20 28 29 65 
0 28 36 44 43 35 34 26 18 11 65 
0 28 36 44 43 35 34 26 27 18 11 65 
0 28 36 44 43 35 34 27 26 18 29 65 
0 36 44 43 35 34 26 18 11 20 21 29 65 
0 28 36 44 43 42 34 27 18 11 65 
0 36 44 43 35 34 26 18 11 20 28 29 65 
0 36 44 43 35 34 26 18 11 21 28 65 
0 36 44 43 42 34 26 18 10 11 20 21 29 65 
0 28 36 44 35 42 34 26 18 11 65 
0 36 44 43 42 34 26 18 10 11 21 65 
0 28 36 44 43 42 34 26 18 11 20 21 29 65 
0 36 44 43 42 34 26 18 10 11 20 28 29 65 
0 28 36 44 43 35 34 25 18 11 65 
0 28 36 44 43 42 34 25 17 18 11 65 
0 28 36 44 35 34 26 25 17 18 29 65 
0 28 36 44 35 34 26 25 17 18 29 65 
0 28 36 44 43 42 34 25 17 18 11 65 
0 28 36 44 43 42 34 33 25 17 18 11 65 
0 36 44 35 34 33 25 17 18 11 65 
0 28 36 44 52 53 61 54 38 65 
0 36 28 20 12 11 3 4 5 6 7 14 21 65 
0 28 36 44 53 54 62 39 38 29 65 
0 28 20 12 11 10 2 3 4 5 6 14 21 29 65 
0 28 20 11 10 2 3 4 5 6 7 14 21 29 65 
0 36 44 52 53 61 62 39 38 29 65 
0 36 35 34 33 41 49 59 60 54 37 65 
0 28 36 44 35 34 26 17 18 11 65 
0 28 36 37 38 39 46 45 44 43 65 
0 28 36 37 38 46 54 45 44 43 35 29 65 
0 36 37 38 46 54 45 44 43 35 27 28 20 21 65 
0 36 28 29 21 20 27 35 43 45 65 
0 28 36 37 38 46 54 53 44 43 35 29 65 
0 36 37 38 46 54 53 44 43 35 28 65 
0 28 36 37 45 44 43 35 27 18 11 65 
0 28 20 21 12 11 10 18 27 35 43 36 65 
0 28 36 44 43 35 34 27 18 11 65 
0 36 44 43 35 34 26 18 11 21 28 65 
0 36 44 43 35 34 26 18 11 20 21 29 65 
0 28 36 44 43 42 34 27 18 11 65 
0 28 36 44 43 35 34 26 18 11 65 
0 36 44 43 35 34 26 18 11 20 28 29 65 
0 36 44 43 42 34 26 18 10 11 21 65 
0 36 44 43 42 34 26 18 10 11 20 21 29 65 
0 28 36 44 35 42 34 26 18 11 65 
0 28 36 44 43 35 34 25 18 11 65 
0 36 44 43 42 34 26 18 10 11 20 28 29 65 
0 28 36 44 43 42 34 25 18 11 20 21 65 
0 28 36 44 43 42 34 33 25 18 11 65 
0 28 36 44 43 42 34 25 17 18 11 65 
0 28 36 44 35 34 26 25 17 18 29 65 
0 28 36 44 43 34 26 25 17 18 11 65 
0 28 36 44 43 42 34 33 25 17 18 11 65 
0 28 36 44 43 42 34 33 25 17 18 11 65 
0 28 36 44 52 53 61 54 38 65 
0 28 36 44 52 53 61 54 38 65 
0 36 28 20 12 11 3 4 5 6 7 14 21 65 
0 28 36 44 52 53 61 39 38 65 
0 36 44 52 60 59 50 49 41 33 34 28 29 65 
0 36 44 52 53 61 62 54 39 38 29 65 
0 28 20 11 10 2 3 4 5 6 7 14 21 29 65 
0 28 20 12 11 2 3 4 5 6 7 14 21 29 65 
0 28 27 26 18 17 9 20 29 65 
0 36 44 43 34 26 25 17 18 11 20 28 29 65 
0 28 36 37 38 46 54 45 44 43 35 29 65 
0 36 37 38 39 46 45 44 43 35 28 65 
0 36 37 38 46 54 45 44 43 35 27 28 20 21 65 
0 28 36 37 38 46 54 53 44 43 35 29 65 
0 36 37 38 46 54 53 44 43 35 28 65 
0 36 37 46 54 53 52 44 43 35 27 28 20 21 65 
0 28 20 21 12 11 10 18 27 35 43 36 65 
0 28 36 44 43 35 34 27 18 11 65 
0 36 44 43 35 34 26 18 11 21 28 65 
0 36 44 43 35 34 26 18 11 20 21 29 65 
0 28 36 44 43 34 27 26 18 11 65 
0 28 36 44 43 42 34 27 18 11 65 
0 36 44 43 35 34 26 18 11 20 28 29 65 
0 36 44 43 42 34 26 18 10 11 20 21 29 65 
0 36 44 43 42 34 26 18 10 11 21 65 
0 36 44 43 42 34 26 18 10 11 20 28 29 65 
0 28 36 44 43 34 26 18 17 11 65 
0 28 36 44 35 34 26 18 17 65 
0 28 36 44 35 34 26 17 18 11 65 
0 28 36 44 43 34 26 17 18 11 65 
0 28 36 44 43 42 34 25 17 18 11 65 
0 28 36 44 43 34 26 25 17 18 11 65 
0 28 36 44 35 34 26 25 17 18 29 65 
0 36 44 35 34 26 25 17 18 11 65 
0 36 44 43 34 26 25 17 18 11 20 21 65 
0 28 36 44 53 52 60 61 62 54 47 38 65 
0 28 36 44 52 53 60 61 54 38 65 
0 28 36 44 52 53 61 54 38 65 
0 36 28 20 12 11 3 4 5 6 7 14 21 65 
0 36 44 52 60 59 50 49 41 33 34 28 29 65 
0 28 20 11 10 2 3 4 5 6 7 14 21 29 65 
0 28 20 12 11 2 3 4 5 6 7 14 21 29 65 
0 36 44 52 51 59 57 49 41 65 
0 28 36 44 35 34 26 25 17 18 29 65 
0 28 20 12 11 10 3 4 5 6 7 14 21 65 
0 36 37 38 46 54 45 44 43 35 27 28 20 21 65 
0 28 36 37 38 46 54 45 44 43 35 29 65 
0 28 36 37 38 39 46 45 44 43 65 
0 36 28 29 21 20 27 35 43 45 65 
0 36 44 43 35 27 28 20 21 29 45 65 
0 36 37 38 39 46 45 44 43 35 28 65 
0 36 37 38 46 54 53 44 43 35 28 65 
0 28 36 37 38 46 54 53 44 43 35 29 65 
0 28 36 37 45 44 43 35 27 18 11 65 
0 28 20 21 12 11 10 18 27 35 43 36 65 
0 28 36 44 43 35 34 27 18 11 65 
0 36 44 43 35 34 26 18 11 20 21 29 65 
0 36 44 43 35 34 26 18 11 21 28 65 
0 28 36 44 43 34 27 26 18 11 65 
0 28 36 44 43 42 34 27 18 11 65 
0 36 44 43 35 34 26 18 11 20 28 29 65 
0 36 44 43 42 34 26 18 10 11 20 21 29 65 
0 28 36 44 43 35 34 25 18 11 65 
0 36 44 43 42 34 26 18 10 11 21 65 
0 28 36 44 43 42 34 26 18 11 20 21 29 65 
0 36 44 43 42 34 26 18 10 11 20 28 29 65 
0 28 36 44 43 42 34 25 18 11 20 21 65 
0 28 36 44 53 54 55 47 39 31 21 29 65 
0 36 44 35 34 26 25 17 18 11 28 29 65 
0 36 44 43 42 34 25 17 18 11 28 29 65 
0 36 44 35 34 33 25 17 18 11 28 65 
0 28 36 44 45 53 61 62 54 39 38 29 65 
0 28 36 44 52 53 61 54 38 65 
0 36 28 20 12 11 3 4 5 6 7 14 21 65 
0 28 36 44 52 53 61 39 38 65 
0 36 44 52 60 59 50 49 41 33 34 28 29 65 
0 36 44 52 53 61 62 54 39 38 29 65 
0 28 20 11 10 2 3 4 5 6 7 14 21 29 65 
0 28 20 12 11 2 3 4 5 6 7 14 21 29 65 
0 36 44 52 60 59 57 49 41 65 
0 28 36 44 52 53 61 39 38 65 
0 36 37 38 46 54 45 44 43 35 27 28 20 21 65 
0 28 36 37 38 46 54 45 44 43 35 29 65 
0 36 28 29 21 20 27 35 43 45 65 
0 28 36 37 38 39 46 45 44 43 65 
0 36 37 38 39 46 45 44 43 35 28 65 
0 36 37 38 46 54 53 44 43 35 28 65 
0 28 36 37 38 46 54 53 44 43 35 29 65 
0 28 36 37 46 54 53 52 44 43 35 27 29 65 
0 36 37 46 54 53 52 44 43 35 27 28 20 21 65 
0 28 20 21 12 11 10 18 27 35 43 36 65 
0 28 36 44 43 35 34 26 18 11 65 
0 36 44 43 35 34 26 18 11 20 28 29 65 
0 28 36 44 43 35 34 26 18 11 65 
0 28 36 44 43 35 34 26 27 18 11 65 
0 28 36 44 43 34 27 26 18 11 65 
0 36 44 43 35 34 26 18 11 21 28 65 
0 36 44 43 35 34 26 18 11 20 21 29 65 
0 28 36 44 43 35 34 26 18 11 65 
0 36 44 43 35 34 26 18 11 20 28 29 65 
0 36 44 43 42 34 26 18 10 11 20 21 29 65 
0 28 36 44 43 42 34 26 18 11 20 21 29 65 
0 36 44 43 42 34 26 18 10 11 21 65 
0 36 44 43 42 34 26 18 10 11 20 28 29 65 
0 28 36 44 43 42 34 25 18 11 20 21 65 
0 28 36 44 53 54 55 47 39 31 21 29 65 
0 28 36 44 43 42 34 33 25 17 18 11 65 
0 28 36 44 43 42 34 25 17 18 11 65 
0 28 36 44 43 42 34 33 25 17 18 11 65 
0 28 36 44 43 42 34 33 25 17 18 11 65 
0 28 36 44 52 53 61 54 38 65 
0 28 36 44 52 53 60 61 54 38 65 
0 28 36 44 52 53 61 54 38 65 
0 36 28 20 12 11 3 4 5 6 7 14 21 65 
0 28 36 44 53 54 62 39 38 29 65 
0 36 44 52 53 61 62 54 39 38 29 65 
0 28 20 11 10 2 3 4 5 6 7 14 21 29 65 
0 28 20 12 11 2 3 4 5 6 7 14 21 29 65 
0 36 44 52 53 61 62 39 38 29 65 
0 36 37 38 46 54 45 44 43 35 27 28 20 21 65 
0 28 36 37 38 46 54 45 44 43 35 29 65 
0 28 36 37 38 39 46 45 44 43 65 
0 36 28 29 21 20 27 35 43 45 65 
0 36 37 38 46 54 53 44 43 35 28 65 
0 28 36 37 38 46 54 53 44 43 35 29 65 
0 36 28 29 21 20 27 35 43 65 
0 36 37 46 54 53 52 44 43 35 27 28 20 21 65 
0 28 20 21 12 11 10 18 27 35 43 36 65 
0 28 36 44 43 35 34 27 18 11 65 
0 36 44 43 35 34 26 18 11 20 21 29 65 
0 36 44 43 35 34 26 18 11 21 28 65 
0 28 36 44 43 34 27 26 18 11 65 
0 36 44 43 35 34 26 18 11 20 28 29 65 
0 28 36 44 43 42 34 27 18 11 65 
0 28 36 35 44 43 34 26 18 11 65 
0 28 36 44 43 35 34 26 18 11 65 
0 36 44 43 42 34 26 18 10 11 20 21 29 65 
0 28 36 44 43 42 34 26 18 11 20 21 29 65 
0 28 36 44 43 35 34 25 18 11 65 
0 36 44 43 42 34 26 18 10 11 21 65 
0 36 44 43 42 34 26 18 10 11 20 28 29 65 
0 28 36 44 35 42 34 26 18 11 65 
0 28 36 44 35 34 26 17 18 11 65 
0 28 36 44 43 34 26 17 18 11 65 
0 28 36 44 43 34 26 18 17 11 65 
0 28 36 44 35 34 26 18 17 65 
0 28 36 44 43 42 34 33 25 18 11 65 
0 28 36 44 43 42 34 25 17 18 11 65 
0 28 36 44 43 34 26 25 17 18 11 65 
0 28 36 44 35 34 26 25 17 18 29 65 
0 28 36 44 43 42 34 33 25 17 18 11 65 
0 28 36 44 43 42 34 25 17 18 11 65 
0 28 36 44 43 34 26 25 17 18 11 65 
0 36 44 43 42 34 25 17 18 11 28 29 65 
0 36 44 43 34 26 25 17 18 11 20 28 29 65 
0 28 36 44 45 53 60 61 62 54 47 39 38 65 
0 36 44 35 34 26 25 17 18 11 65 
0 28 36 44 52 53 60 61 54 38 65 
0 28 36 44 53 52 60 61 62 54 47 38 65 
0 28 36 44 52 53 61 54 38 65 
0 36 28 20 12 11 10 2 4 29 65 
0 28 36 44 53 54 62 39 38 29 65 
0 36 44 52 53 61 62 54 39 38 29 65 
0 28 20 12 11 10 2 3 4 5 6 7 14 21 29 65 
0 36 44 52 53 61 62 39 38 29 65 
0 36 37 38 46 54 45 44 43 35 27 28 20 21 65 
0 28 36 37 38 46 54 45 44 43 35 29 65 
0 28 36 37 38 39 46 45 44 43 65 
0 36 28 29 21 20 27 35 43 45 65 
0 36 37 38 39 46 45 44 43 35 28 65 
0 36 37 38 46 54 53 44 43 35 28 65 
0 28 36 37 38 46 54 53 44 43 35 29 65 
0 28 36 37 45 44 43 35 27 18 11 65 
0 36 44 43 35 27 18 11 20 28 29 65 
0 28 20 21 12 11 10 18 27 35 43 36 65 
0 28 36 44 43 35 34 26 18 11 65 
0 36 44 43 35 34 26 18 11 21 28 65 
0 28 20 21 12 11 18 26 34 35 43 44 36 65 
0 28 36 44 43 35 27 26 18 11 65 
0 36 44 43 35 28 27 26 18 11 65 
0 36 44 43 35 34 26 18 11 21 28 65 
0 36 44 43 35 34 26 18 11 20 21 29 65 
0 28 36 44 43 34 27 26 18 11 65 
0 28 36 35 44 43 34 26 18 11 65 
0 36 44 43 42 34 26 18 10 11 21 65 
0 36 44 43 42 34 26 18 10 11 20 21 29 65 
0 28 36 44 43 42 34 26 18 11 20 21 29 65 
0 28 36 44 35 34 26 17 18 11 65 
0 28 36 44 35 34 33 26 18 29 65 
0 28 36 44 53 54 55 47 39 31 21 29 65 
0 36 44 43 42 34 33 25 18 10 11 20 28 29 65 
0 28 36 44 43 42 34 33 25 18 11 65 
0 28 36 44 35 34 26 25 17 18 29 65 
0 28 36 44 43 42 34 25 17 18 11 65 
0 28 36 44 43 34 26 25 17 18 11 65 
0 36 44 43 42 41 33 25 18 11 28 29 65 
0 28 36 44 43 42 41 33 25 18 11 65 
0 36 44 35 34 33 25 17 18 11 65 
0 28 36 44 52 53 61 54 38 65 
0 36 28 20 12 11 3 4 5 6 7 14 21 65 
0 28 36 44 52 53 61 39 38 65 
0 36 44 52 60 59 50 49 41 33 34 28 29 65 
0 36 44 52 53 61 62 54 39 38 29 65 
0 28 20 12 11 2 3 4 5 6 7 14 21 29 65 
0 28 20 11 10 2 3 4 5 6 7 14 21 29 65 
0 36 44 52 53 61 62 39 38 29 65 
0 28 36 37 38 46 54 45 44 43 35 29 65 
0 28 36 37 38 39 46 45 44 43 65 
0 36 28 29 21 20 27 35 43 45 65 
0 36 37 38 39 46 45 44 43 35 28 65 
0 36 37 38 46 54 45 44 43 35 27 28 20 21 65 
0 28 36 37 38 46 54 53 44 43 35 29 65 
0 36 37 38 46 54 53 44 43 35 28 65 
0 28 36 37 45 44 43 35 27 18 11 65 
0 28 20 21 12 11 10 18 27 35 43 36 65 
0 36 44 43 35 34 26 18 11 21 28 65 
0 28 20 21 12 11 18 26 34 35 43 44 36 65 
0 28 36 44 43 35 34 26 18 11 65 
0 28 36 44 43 34 26 18 11 20 21 29 65 
0 28 36 44 35 34 26 18 11 65 
0 28 20 21 12 11 10 18 26 34 35 36 37 65 
0 36 44 35 34 26 18 11 21 65 
0 36 44 43 34 26 18 10 11 21 28 65 
0 36 44 35 34 26 18 11 20 28 29 65 
0 36 44 43 34 26 18 10 11 20 28 29 65 
0 28 20 21 12 11 10 18 26 34 43 36 65 
0 36 44 43 35 34 26 18 11 21 28 65 
0 36 44 43 35 34 26 18 11 20 21 29 65 
0 36 44 43 35 34 26 18 11 20 28 29 65 
0 36 44 43 42 34 26 18 10 11 21 65 
0 28 36 44 43 42 34 26 18 11 20 21 29 65 
0 36 44 43 42 34 26 18 10 11 20 21 29 65 
0 28 36 44 35 42 34 26 18 11 65 
0 36 44 43 42 34 26 18 10 11 20 28 29 65 
0 28 36 44 43 34 26 17 18 11 65 
0 28 36 44 53 54 55 47 39 31 21 29 65 
0 28 36 44 43 42 34 33 25 17 18 11 65 
0 28 36 44 43 42 34 25 17 18 11 65 
0 36 44 43 42 34 25 17 18 11 28 29 65 
0 36 44 43 34 26 25 17 18 11 20 28 29 65 
0 36 44 35 34 26 25 17 18 11 28 29 65 
0 28 36 44 43 42 34 33 25 17 18 11 65 
0 36 44 43 42 34 33 25 17 18 11 28 29 65 
0 28 36 44 53 52 60 61 62 54 47 38 65 
0 28 36 44 52 53 60 61 54 38 65 
0 28 36 44 52 53 61 54 38 65 
0 28 36 44 52 53 61 54 38 65 
0 36 28 20 12 11 3 4 5 6 7 14 21 65 
0 28 36 44 53 54 62 39 38 29 65 
0 36 44 52 53 61 62 54 39 38 29 65 
0 28 20 11 10 2 3 4 5 6 7 14 21 29 65 
0 28 20 12 11 2 3 4 5 6 7 14 21 29 65 
0 36 44 52 53 61 62 39 38 29 65 
0 36 37 38 46 54 45 44 43 35 27 28 20 21 65 
0 36 37 38 46 54 53 44 43 35 28 65 
0 28 36 37 45 44 43 35 27 18 11 65 
0 28 36 44 43 35 34 27 18 11 65 
0 36 44 43 35 34 26 18 11 21 28 65 
0 36 44 43 35 34 26 18 11 20 21 29 65 
0 36 44 43 35 34 26 18 11 20 28 29 65 
0 28 36 44 43 42 34 27 18 11 65 
0 28 36 44 43 35 34 26 18 11 65 
0 28 36 44 43 34 27 26 18 11 65 
0 28 36 44 35 34 27 26 18 29 65 
0 36 44 43 42 34 26 18 10 11 21 65 
0 36 44 43 42 34 26 18 10 11 20 21 29 65 
0 28 36 44 43 42 34 26 18 11 20 21 29 65 
0 28 36 44 35 42 34 26 18 11 65 
0 36 44 43 42 34 26 18 10 11 20 28 29 65 
0 28 36 44 43 35 34 25 18 11 65 
0 28 36 44 43 34 26 17 18 11 65 
0 28 36 44 35 34 26 17 18 11 65 
0 28 36 44 43 34 26 18 17 11 65 
0 28 36 44 35 34 33 26 18 29 65 
0 28 36 44 53 54 55 47 39 31 21 29 65 
0 28 36 44 43 42 34 33 25 18 11 65 
0 36 44 43 42 34 33 25 17 18 11 28 29 65 
0 28 36 44 45 53 61 62 54 39 38 29 65 
0 28 36 44 52 53 61 54 38 65 
0 36 28 20 12 11 3 4 5 6 7 14 21 65 
0 36 28 20 12 4 5 6 7 16 14 21 65 
0 28 20 12 11 10 3 4 5 6 7 14 21 65 
0 28 20 12 11 3 4 5 6 7 14 21 29 65 
0 28 20 12 11 4 5 6 7 14 21 29 65 
0 28 20 11 10 2 3 4 5 6 7 14 21 29 65 
0 28 20 12 11 2 3 4 5 6 7 14 21 29 65 
0 28 20 12 3 4 5 6 7 16 14 21 65 
0 28 27 18 17 9 21 29 65 
0 28 36 37 44 43 35 27 18 11 65 
0 36 37 38 46 54 45 44 43 35 27 28 20 21 65 
0 28 36 37 38 46 54 45 44 43 35 29 65 
0 36 37 38 39 46 45 44 43 35 28 65 
0 28 36 37 38 39 46 45 44 43 65 
0 36 28 29 21 20 27 35 43 45 65 
0 36 37 38 46 54 53 44 43 35 28 65 
0 28 36 37 38 46 54 53 44 43 35 29 65 
0 28 36 37 45 44 43 35 27 18 11 65 
0 28 20 21 12 11 10 18 27 35 43 36 65 
0 36 44 43 35 34 26 18 11 20 28 29 65 
0 36 44 43 35 34 26 18 11 21 28 65 
0 28 20 21 12 11 18 26 34 35 43 44 36 65 
0 28 36 37 44 43 35 34 26 18 11 65 
0 28 36 44 43 35 34 26 27 18 11 65 
0 28 36 44 43 35 34 27 26 18 29 65 
0 28 36 44 43 35 34 26 27 18 11 65 
0 36 44 43 35 34 26 18 11 21 28 65 
0 36 44 43 35 34 26 18 11 20 21 29 65 
0 36 44 43 35 34 26 18 11 20 28 29 65 
0 28 36 35 44 43 34 26 18 11 65 
0 28 36 44 43 34 27 26 18 11 65 
0 28 36 44 43 42 34 27 18 11 65 
0 36 44 43 42 34 26 18 10 11 20 21 29 65 
0 28 36 44 35 42 34 26 18 11 65 
0 28 36 44 43 42 34 26 18 11 20 21 29 65 
0 36 44 43 42 34 26 18 10 11 21 65 
0 36 44 43 42 34 26 18 10 11 20 28 29 65 
0 28 36 44 43 35 34 25 18 11 65 
0 28 36 44 35 34 26 17 18 11 65 
0 28 36 44 53 54 55 47 39 31 21 29 65 
0 36 44 35 34 26 25 17 18 11 28 29 65 
0 36 44 43 42 34 25 17 18 11 28 29 65 
0 36 44 43 34 26 25 17 18 11 20 28 29 65 
0 28 36 44 43 34 26 25 17 18 11 65 
0 28 36 44 35 34 26 25 17 18 29 65 
0 28 36 44 43 42 34 25 17 18 11 65 
0 36 44 43 42 34 33 25 17 18 11 28 29 65 
0 28 36 44 43 42 34 33 25 17 18 11 65 
0 36 44 43 42 34 33 25 17 18 11 28 29 65 
0 28 36 44 52 53 61 54 38 65 
0 28 36 44 52 53 60 61 54 38 65 
0 28 36 44 53 52 60 61 62 54 47 38 65 
0 28 36 44 52 53 61 54 38 65 
0 28 36 44 52 53 61 54 38 65 
0 36 28 20 12 11 3 4 5 6 7 14 21 65 
0 28 36 44 53 54 62 39 38 29 65 
0 28 20 12 11 10 3 4 5 6 7 14 21 65 
0 28 20 12 11 2 3 4 5 6 7 14 21 29 65 
0 28 20 11 10 2 3 4 5 6 7 14 21 29 65 
0 28 36 44 52 53 61 39 38 65 
0 36 44 52 60 59 57 49 41 65 
0 28 29 21 13 5 6 7 16 39 38 65 
0 28 20 21 13 5 6 7 16 32 38 65 
0 36 44 52 53 61 62 30 65 
